
Gurobi 8.1.0 (mac64, Python) logging started Thu Aug 15 12:20:50 2019

Academic license - for non-commercial use only

Gurobi 8.1.0 (mac64, Python) logging started Thu Aug 15 12:21:01 2019

Academic license - for non-commercial use only

Gurobi 8.1.0 (mac64, Python) logging started Thu Aug 15 12:21:30 2019

Academic license - for non-commercial use only

Gurobi 8.1.0 (mac64, Python) logging started Thu Aug 15 12:21:40 2019

Academic license - for non-commercial use only

Gurobi 8.1.0 (mac64, Python) logging started Thu Aug 15 12:22:17 2019

Academic license - for non-commercial use only

Gurobi 8.1.0 (mac64, Python) logging started Thu Aug 15 12:22:57 2019

Academic license - for non-commercial use only

Gurobi 8.1.0 (mac64, Python) logging started Thu Aug 15 12:22:58 2019

Academic license - for non-commercial use only

Gurobi 8.1.0 (mac64, Python) logging started Thu Aug 15 12:23:09 2019

Academic license - for non-commercial use only

Gurobi 8.1.0 (mac64, Python) logging started Thu Aug 15 12:23:09 2019

Academic license - for non-commercial use only

Gurobi 8.1.0 (mac64, Python) logging started Thu Aug 15 12:25:42 2019

Academic license - for non-commercial use only

Gurobi 8.1.0 (mac64, Python) logging started Thu Aug 15 12:25:53 2019

Academic license - for non-commercial use only

Gurobi 8.1.0 (mac64, Python) logging started Thu Aug 15 12:27:46 2019

Academic license - for non-commercial use only

Gurobi 8.1.0 (mac64, Python) logging started Thu Aug 15 12:55:43 2019

Academic license - for non-commercial use only

Gurobi 8.1.0 (mac64, Python) logging started Thu Aug 15 12:57:26 2019

Academic license - for non-commercial use only

Gurobi 8.1.0 (mac64, Python) logging started Thu Aug 15 13:19:16 2019

Academic license - for non-commercial use only

Gurobi 8.1.0 (mac64, Python) logging started Thu Aug 15 13:19:30 2019

Academic license - for non-commercial use only

Gurobi 8.1.0 (mac64, Python) logging started Thu Aug 15 13:19:30 2019

Academic license - for non-commercial use only

Gurobi 8.1.0 (mac64, Python) logging started Thu Aug 15 13:29:42 2019

Academic license - for non-commercial use only

Gurobi 8.1.0 (mac64, Python) logging started Thu Aug 15 13:30:51 2019

Academic license - for non-commercial use only

Gurobi 8.1.0 (mac64, Python) logging started Thu Aug 15 13:31:08 2019

Academic license - for non-commercial use only

Gurobi 8.1.0 (mac64, Python) logging started Thu Aug 15 13:31:24 2019

Academic license - for non-commercial use only

Gurobi 8.1.0 (mac64, Python) logging started Thu Aug 15 13:31:36 2019

Academic license - for non-commercial use only

Gurobi 8.1.0 (mac64, Python) logging started Thu Aug 15 13:39:47 2019

Academic license - for non-commercial use only

Gurobi 8.1.0 (mac64, Python) logging started Thu Aug 15 13:40:13 2019

Academic license - for non-commercial use only

Gurobi 8.1.0 (mac64, Python) logging started Thu Aug 15 13:44:16 2019

Academic license - for non-commercial use only

Gurobi 8.1.0 (mac64, Python) logging started Thu Aug 15 13:44:30 2019

Academic license - for non-commercial use only

Gurobi 8.1.0 (mac64, Python) logging started Thu Aug 15 13:47:51 2019

Academic license - for non-commercial use only

Gurobi 8.1.0 (mac64, Python) logging started Thu Aug 15 13:49:08 2019

Academic license - for non-commercial use only

Gurobi 8.1.0 (mac64, Python) logging started Thu Aug 15 13:49:45 2019

Academic license - for non-commercial use only

Gurobi 8.1.0 (mac64, Python) logging started Thu Aug 15 13:51:20 2019

Academic license - for non-commercial use only

Gurobi 8.1.0 (mac64, Python) logging started Thu Aug 15 14:14:57 2019

Academic license - for non-commercial use only

Gurobi 8.1.0 (mac64, Python) logging started Thu Aug 15 14:24:54 2019

Academic license - for non-commercial use only

Gurobi 8.1.0 (mac64, Python) logging started Thu Aug 15 14:25:50 2019

Academic license - for non-commercial use only

Gurobi 8.1.0 (mac64, Python) logging started Thu Aug 15 14:27:50 2019

Academic license - for non-commercial use only

Gurobi 8.1.0 (mac64, Python) logging started Thu Aug 15 14:27:58 2019

Academic license - for non-commercial use only

Gurobi 8.1.0 (mac64, Python) logging started Thu Aug 15 14:28:01 2019

Academic license - for non-commercial use only

Gurobi 8.1.0 (mac64, Python) logging started Thu Aug 15 14:29:38 2019

Academic license - for non-commercial use only

Gurobi 8.1.0 (mac64, Python) logging started Thu Aug 15 14:31:45 2019

Academic license - for non-commercial use only

Gurobi 8.1.0 (mac64, Python) logging started Thu Aug 15 14:32:01 2019

Academic license - for non-commercial use only

Gurobi 8.1.0 (mac64, Python) logging started Thu Aug 15 14:35:01 2019

Academic license - for non-commercial use only

Gurobi 8.1.0 (mac64, Python) logging started Thu Aug 15 14:54:50 2019

Academic license - for non-commercial use only

Gurobi 8.1.0 (mac64, Python) logging started Thu Aug 15 14:54:50 2019

Academic license - for non-commercial use only

Gurobi 8.1.0 (mac64, Python) logging started Thu Aug 15 14:55:40 2019

Academic license - for non-commercial use only

Gurobi 8.1.0 (mac64, Python) logging started Thu Aug 15 14:56:18 2019

Academic license - for non-commercial use only

Gurobi 8.1.0 (mac64, Python) logging started Thu Aug 15 14:56:53 2019

Academic license - for non-commercial use only

Gurobi 8.1.0 (mac64, Python) logging started Thu Aug 15 14:57:06 2019

Academic license - for non-commercial use only

Gurobi 8.1.0 (mac64, Python) logging started Thu Aug 15 14:57:50 2019

Academic license - for non-commercial use only

Gurobi 8.1.0 (mac64, Python) logging started Thu Aug 15 15:15:45 2019

Academic license - for non-commercial use only

Gurobi 8.1.0 (mac64, Python) logging started Thu Aug 15 15:20:01 2019

Academic license - for non-commercial use only

Gurobi 8.1.0 (mac64, Python) logging started Thu Aug 15 15:20:16 2019

Academic license - for non-commercial use only

Gurobi 8.1.0 (mac64, Python) logging started Thu Aug 15 15:27:55 2019

Academic license - for non-commercial use only

Gurobi 8.1.0 (mac64, Python) logging started Thu Aug 15 15:33:44 2019

Academic license - for non-commercial use only

Gurobi 8.1.0 (mac64, Python) logging started Thu Aug 15 15:34:13 2019

Academic license - for non-commercial use only

Gurobi 8.1.0 (mac64, Python) logging started Thu Aug 15 15:45:19 2019

Academic license - for non-commercial use only

Gurobi 8.1.0 (mac64, Python) logging started Mon Aug 19 10:25:48 2019

Academic license - for non-commercial use only

Gurobi 8.1.0 (mac64, Python) logging started Tue Aug 20 09:43:08 2019

Academic license - for non-commercial use only

Gurobi 8.1.0 (mac64, Python) logging started Tue Aug 20 10:12:47 2019

Academic license - for non-commercial use only

Gurobi 8.1.0 (mac64, Python) logging started Tue Aug 20 10:59:14 2019

Academic license - for non-commercial use only

Gurobi 8.1.0 (mac64, Python) logging started Tue Aug 20 11:05:59 2019

Academic license - for non-commercial use only
Warning: constraint name "Disable non-permitted based on prespecified" has a space
Warning: constraint name "Disable non-permitted based on prespecified" has a space
Changed value of parameter PoolSearchMode to 2
   Prev: 0  Min: 0  Max: 2  Default: 0
Changed value of parameter PoolSolutions to 1
   Prev: 10  Min: 1  Max: 2000000000  Default: 10
Changed value of parameter MIPGapAbs to 0.97
   Prev: 1e-10  Min: 0.0  Max: 1e+100  Default: 1e-10
Warning: constraint name "Disable non-permitted based on prespecified" has a space
Changed value of parameter PoolSearchMode to 2
   Prev: 0  Min: 0  Max: 2  Default: 0
Changed value of parameter PoolSolutions to 1
   Prev: 10  Min: 1  Max: 2000000000  Default: 10
Changed value of parameter MIPGapAbs to 0.97
   Prev: 1e-10  Min: 0.0  Max: 1e+100  Default: 1e-10
Warning: constraint name "Disable non-permitted based on prespecified" has a space
Changed value of parameter PoolSearchMode to 2
   Prev: 0  Min: 0  Max: 2  Default: 0
Changed value of parameter PoolSolutions to 1
   Prev: 10  Min: 1  Max: 2000000000  Default: 10
Changed value of parameter MIPGapAbs to 0.97
   Prev: 1e-10  Min: 0.0  Max: 1e+100  Default: 1e-10

Gurobi 8.1.0 (mac64, Python) logging started Tue Aug 20 11:54:09 2019

Academic license - for non-commercial use only
Warning: constraint name "Disable non-permitted based on prespecified" has a space
Changed value of parameter PoolSearchMode to 2
   Prev: 0  Min: 0  Max: 2  Default: 0
Changed value of parameter PoolSolutions to 1
   Prev: 10  Min: 1  Max: 2000000000  Default: 10
Changed value of parameter MIPGapAbs to 0.97
   Prev: 1e-10  Min: 0.0  Max: 1e+100  Default: 1e-10

Gurobi 8.1.0 (mac64, Python) logging started Tue Aug 20 11:55:21 2019

Academic license - for non-commercial use only
Warning: constraint name "Disable non-permitted based on prespecified" has a space
Changed value of parameter PoolSearchMode to 2
   Prev: 0  Min: 0  Max: 2  Default: 0
Changed value of parameter PoolSolutions to 1
   Prev: 10  Min: 1  Max: 2000000000  Default: 10
Changed value of parameter MIPGapAbs to 0.97
   Prev: 1e-10  Min: 0.0  Max: 1e+100  Default: 1e-10

Gurobi 8.1.0 (mac64, Python) logging started Tue Aug 20 11:56:41 2019

Academic license - for non-commercial use only
Warning: constraint name "Disable non-permitted based on prespecified" has a space
Changed value of parameter PoolSearchMode to 2
   Prev: 0  Min: 0  Max: 2  Default: 0
Changed value of parameter PoolSolutions to 1
   Prev: 10  Min: 1  Max: 2000000000  Default: 10
Changed value of parameter MIPGapAbs to 0.97
   Prev: 1e-10  Min: 0.0  Max: 1e+100  Default: 1e-10

Gurobi 8.1.0 (mac64, Python) logging started Tue Aug 20 12:39:16 2019

Academic license - for non-commercial use only
Warning: constraint name "Disable non-permitted based on prespecified" has a space
Changed value of parameter PoolSearchMode to 2
   Prev: 0  Min: 0  Max: 2  Default: 0
Changed value of parameter PoolSolutions to 1
   Prev: 10  Min: 1  Max: 2000000000  Default: 10
Changed value of parameter MIPGapAbs to 0.97
   Prev: 1e-10  Min: 0.0  Max: 1e+100  Default: 1e-10
Warning: constraint name "Disable non-permitted based on prespecified" has a space
Changed value of parameter PoolSearchMode to 2
   Prev: 0  Min: 0  Max: 2  Default: 0
Changed value of parameter PoolSolutions to 1
   Prev: 10  Min: 1  Max: 2000000000  Default: 10
Changed value of parameter MIPGapAbs to 0.97
   Prev: 1e-10  Min: 0.0  Max: 1e+100  Default: 1e-10
